
Log started (V11.0.0) Sun May 18 21:06:46 2008

Tried aggregator 1 time.
Reduced MIP has 540 rows, 20001 columns, and 40040 nonzeros.
Presolve time =    0.14 sec.
Clique table members: 500.
MIP emphasis: balance optimality and feasibility.
MIP search method: dynamic search.
Parallel mode: none, using 1 thread.
Root relaxation solution time =    2.64 sec.

        Nodes                                         Cuts/
   Node  Left     Objective  IInf  Best Integer     Best Node    ItCnt     Gap

*     0+    0                        54987.0000     1251.9000      931   97.72%
*     0+    0                         1305.0000     1251.9000      931    4.07%
      0     0     1252.3795    75     1305.0000      Fract: 6     1115    4.03%
      0     0     1260.5261    96     1305.0000      Cuts: 16     2818    3.41%
      0     0     1260.5355    96     1305.0000     Covers: 3     2838    3.41%
      0     0     1260.5455    89     1305.0000     Covers: 1     2845    3.41%
*     0+    0                         1302.0000     1260.5455     2845    3.18%
      0     0     1260.5455    87     1302.0000     Covers: 1     2853    3.18%
*     0+    0                         1301.0000     1260.5455     2853    3.11%
      0     2     1261.0000    81     1301.0000     1260.5455     2853    3.11%
    100   101     1261.0000    77     1301.0000     1261.0000     4833    3.07%
    200   155     1261.0000    77     1301.0000     1261.0000     9801    3.07%
    300   207     1261.0147    81     1301.0000     1261.0000    14786    3.07%
    400   263     1261.0221    80     1301.0000     1261.0000    20008    3.07%
    500   317     1261.0355    82     1301.0000     1261.0000    28965    3.07%
    600   350     1282.0000    75     1301.0000     1281.1723    37883    1.52%
    700   378     1282.0000    72     1301.0000     1281.1723    39307    1.52%
    800   403     1282.0000    78     1301.0000     1281.1723    41633    1.52%
    900   437     1282.0000    74     1301.0000     1281.1723    44557    1.52%
   1000   495     1282.0000    82     1301.0000     1281.1723    48445    1.52%
Elapsed time = 206.67 sec. (tree size =  6.29 MB, solutions = 4)
   1100   583     1282.0000    81     1301.0000     1281.1723    67546    1.52%
   1200   679     1282.0000   111     1301.0000     1281.1723    76031    1.52%
   1300   773     1282.0000    74     1301.0000     1281.1723    93801    1.52%
   1400   867     1282.0000    83     1301.0000     1281.1723   104490    1.52%
   1500   962     1282.0000    87     1301.0000     1281.1723   115138    1.52%
   1600  1059     1283.0000    76     1301.0000     1281.1723   120729    1.52%
   1700  1147     1283.0000    84     1301.0000     1281.1723   123243    1.52%
   1800  1239     1285.0000    64     1301.0000     1281.1723   126869    1.52%
   1900  1336     1285.0000    67     1301.0000     1281.1723   128253    1.52%
   2000  1436     1285.0000    78     1301.0000     1281.1723   129951    1.52%
Elapsed time = 407.00 sec. (tree size = 19.67 MB, solutions = 4)
   2100  1519     1286.0000    66     1301.0000     1281.1723   133755    1.52%
   2200  1584     1289.0090    67     1301.0000     1281.1723   138326    1.52%
   2300  1636     1290.0000    64     1301.0000     1281.1723   142014    1.52%
   2400  1687     1290.0000    64     1301.0000     1281.1723   146488    1.52%
   2500  1740     1290.0000    65     1301.0000     1281.1723   151067    1.52%
   2600  1794     1291.0000    64     1301.0000     1281.1723   155668    1.52%
   2700  1854     1293.0153    65     1301.0000     1281.1723   159505    1.52%
   2800  1915     1293.3695    64     1301.0000     1281.1723   165187    1.52%
   2900  1966     1293.0000    63     1301.0000     1281.1723   170193    1.52%
   3000  2017     1293.0000    61     1301.0000     1281.1723   175845    1.52%
Elapsed time = 483.05 sec. (tree size = 28.22 MB, solutions = 4)
   3100  2074     1294.0000    65     1301.0000     1281.1723   180639    1.52%
   3200  2131     1296.8377    62     1301.0000     1281.1723   184705    1.52%
   3300  2192     1296.0000    58     1301.0000     1281.1723   188729    1.52%
   3400  2248     1296.0000    64     1301.0000     1281.1723   193374    1.52%
   3500  2303     1297.4724    57     1301.0000     1281.1723   197616    1.52%
   3600  2358     1298.2507    58     1301.0000     1281.1723   201945    1.52%
   3700  2409     1299.0000    61     1301.0000     1281.1723   205636    1.52%
   3800  2475     1282.0000    75     1301.0000     1281.1723   207908    1.52%
   3900  2575     1282.0000    79     1301.0000     1281.1723   209361    1.52%
   4000  2674     1283.0000    72     1301.0000     1281.1723   211471    1.52%
Elapsed time = 554.39 sec. (tree size = 37.67 MB, solutions = 4)
   4100  2774     1283.0000    72     1301.0000     1281.1723   213421    1.52%
   4200  2874     1283.0000    72     1301.0000     1281.1723   215967    1.52%
   4300  2959     1283.0000    71     1301.0000     1281.1723   219863    1.52%
   4400  3054     1284.4918   100     1301.0000     1281.1723   225981    1.52%
   4500  3118     1284.0000    80     1301.0000     1281.1723   251902    1.52%
   4600  3213     1287.0000    62     1301.0000     1281.1723   254704    1.52%
   4700  3284     1287.0000    68     1301.0000     1281.1723   260654    1.52%
   4800  3358     1288.0000    66     1301.0000     1281.1723   266680    1.52%
   4900  3426     1288.0000    66     1301.0000     1281.1723   271184    1.52%
   5000  3483     1288.0000    65     1301.0000     1281.1723   278719    1.52%
Elapsed time = 697.02 sec. (tree size = 49.97 MB, solutions = 4)
   5100  3546     1288.0000    65     1301.0000     1281.1723   285117    1.52%
   5200  3606     1288.7873    67     1301.0000     1281.1723   292653    1.52%
   5300  3667     1288.0000    65     1301.0000     1281.1723   299812    1.52%
   5400  3739     1290.0000    65     1301.0000     1281.1723   303072    1.52%
   5500  3802     1291.0000    64     1301.0000     1281.1723   308011    1.52%
   5600  3857     1292.6539    66     1301.0000     1281.1723   312468    1.52%
   5700  3919     1293.2141    62     1301.0000     1281.1723   316440    1.52%
   5800  3973     1292.0000    65     1301.0000     1281.1723   320672    1.52%
   5900  4028     1292.0000    62     1301.0000     1281.1723   324975    1.52%
   6000  4083     1294.0000    60     1301.0000     1281.1723   328442    1.52%
Elapsed time = 798.95 sec. (tree size = 59.16 MB, solutions = 4)
   6100  4138     1295.1763    62     1301.0000     1281.1723   332651    1.52%
   6200  4194     1294.0000    58     1301.0000     1281.1723   335981    1.52%
   6300  4252     1296.0000    58     1301.0000     1281.1723   339385    1.52%
   6400  4317     1297.5810    55     1301.0000     1281.1723   342004    1.52%
   6500  4381     1297.0000    54     1301.0000     1281.1723   344909    1.52%
   6600  4437     1299.0000    57     1301.0000     1281.1723   348252    1.52%
   6700  4482     1300.0000    56     1301.0000     1281.1723   349646    1.52%
   6800  4485        cutoff           1301.0000     1282.0000   535898    1.46%
   6900  4556     1297.0000    56     1301.0000     1282.0000   627203    1.46%
   7000  4656     1297.0000    52     1301.0000     1282.0000   632825    1.46%
Elapsed time = 1480.48 sec. (tree size = 70.35 MB, solutions = 4)
   7100  4751     1297.0000    54     1301.0000     1282.0000   639733    1.46%
   7200  4837     1284.0000    83     1301.0000     1282.0000   656742    1.46%
   7300  4936     1285.0000    66     1301.0000     1282.0000   661042    1.46%
   7400  5034     1287.0000    56     1301.0000     1282.0000   665538    1.46%
   7500  5132     1287.0000    76     1301.0000     1282.0000   667933    1.46%
   7600  5164     1289.0000    64     1301.0000     1282.0000   670172    1.46%
   7700  5232     1291.0000    61     1301.0000     1282.0000   673318    1.46%
   7800  5314     1283.0000   150     1301.0000     1282.0000   681288    1.46%
   7900  5414     1283.0000    75     1301.0000     1282.0000   682982    1.46%
   8000  5503     1284.0000    77     1301.0000     1282.0000   686457    1.46%
Elapsed time = 1766.34 sec. (tree size = 94.44 MB, solutions = 4)
   8100  5601     1285.2473   140     1301.0000     1282.0000   690567    1.46%
   8200  5698     1286.0000    86     1301.0000     1282.0000   692613    1.46%
   8300  5739        cutoff           1301.0000     1282.0000   694797    1.46%
   8400  5804     1299.0000    53     1301.0000     1282.0000   698749    1.46%
   8500  5852        cutoff           1301.0000     1282.0000   702214    1.46%
   8600  5872     1283.0000   199     1301.0000     1282.0000   711886    1.46%
   8700  5970     1283.0000    75     1301.0000     1282.0000   719646    1.46%
   8800  6070     1283.0000    78     1301.0000     1282.0000   723256    1.46%
   8900  6167     1284.0000    73     1301.0000     1282.0000   732003    1.46%
   9000  6266     1284.0000    77     1301.0000     1282.0000   742335    1.46%
Elapsed time = 2002.06 sec. (tree size = 116.93 MB, solutions = 4)
   9100  6362     1285.0000    68     1301.0000     1282.0000   747643    1.46%
   9200  6461     1285.0000    67     1301.0000     1282.0000   750987    1.46%
   9300  6503     1285.0000    71     1301.0000     1282.0000   755883    1.46%
   9400  6595     1284.0000    82     1301.0000     1282.0000   808451    1.46%
Began writing nodes to disk (directory ./cpxa02652 created)
   9500  6692     1284.0000    71     1301.0000     1282.0000   833578    1.46%
   9600  6789     1285.0000    73     1301.0000     1282.0000   937162    1.46%
   9700  6887     1287.0000    68     1301.0000     1282.0000   942170    1.46%
   9800  6984     1287.0000   114     1301.0000     1282.0000  1011326    1.46%
   9900  7082     1289.0000    97     1301.0000     1282.0000  1016292    1.46%
  10000  7180     1286.0000    67     1301.0000     1282.0000  1062742    1.46%
Elapsed time = 3186.86 sec. (tree size = 144.70 MB, solutions = 4)
Nodefile size = 16.80 MB (10.74 MB after compression)
  10100  7246     1286.0000    75     1301.0000     1282.0000  1063951    1.46%
  10200  7342     1291.0000    67     1301.0000     1282.0000  1088365    1.46%
  10300  7442     1291.0000    58     1301.0000     1282.0000  1090073    1.46%
  10400  7539     1290.0000    65     1301.0000     1282.0000  1169509    1.46%
  10500  7639     1290.0000    61     1301.0000     1282.0000  1171710    1.46%
  10600  7731     1291.0000   176     1301.0000     1282.0000  1329344    1.46%
  10700  7830     1292.0000    74     1301.0000     1282.0000  1337030    1.46%
  10800  7929     1293.0000    79     1301.0000     1282.0000  1346992    1.46%
  10900  8029     1293.0000    72     1301.0000     1282.0000  1348931    1.46%
  11000  8128     1294.0000    79     1301.0000     1282.0000  1353651    1.46%
Elapsed time = 4428.64 sec. (tree size = 176.64 MB, solutions = 4)
Nodefile size = 48.85 MB (31.54 MB after compression)
  11100  8222     1300.0000    63     1301.0000     1282.0000  1359669    1.46%
* 11116+ 8087                         1300.0000     1282.0000  1371007    1.38%
  11200  8167     1299.0000    52     1300.0000     1282.0000  1418152    1.38%
  11300  8256     1299.0000    72     1300.0000     1282.0000  1420900    1.38%
  11400  8319     1299.0000    71     1300.0000     1282.0000  1588885    1.38%
  11500  8418     1299.0000    58     1300.0000     1282.0000  1591689    1.38%
  11600  8505     1299.0000    54     1300.0000     1282.0000  1639945    1.38%
  11700  8603     1299.0000    73     1300.0000     1282.0000  1646568    1.38%
  11800  8698     1299.0000    48     1300.0000     1282.0000  1683867    1.38%
  11900  8791     1299.0000    55     1300.0000     1282.0000  1688092    1.38%
  12000  8874     1299.0000    62     1300.0000     1282.0000  1760621    1.38%
Elapsed time = 5798.25 sec. (tree size = 205.30 MB, solutions = 5)
Nodefile size = 77.36 MB (55.41 MB after compression)
  12100  8974     1299.0000    66     1300.0000     1282.0000  1763144    1.38%
  12200  9072     1299.0000    69     1300.0000     1282.0000  1769491    1.38%
  12300  9156     1288.1711   743     1300.0000     1282.0000  1810006    1.38%
  12400  9253     1292.0000    73     1300.0000     1282.0000  1850486    1.38%
  12500  9350     1293.0000   119     1300.0000     1282.0000  1853397    1.38%
  12600  9450     1293.0000    65     1300.0000     1282.0000  1856101    1.38%
  12700  9549     1294.0000    60     1300.0000     1282.0000  1860223    1.38%
  12800  9649     1294.0000    67     1300.0000     1282.0000  1863819    1.38%
  12900  9739     1298.0000    60     1300.0000     1282.0000  1868060    1.38%
  13000  9783     1299.0000    50     1300.0000     1282.0000  1883437    1.38%
Elapsed time = 6345.22 sec. (tree size = 239.59 MB, solutions = 5)
Nodefile size = 111.69 MB (82.83 MB after compression)
  13100  9841     1299.0000    54     1300.0000     1282.0000  1901743    1.38%
  13200  9931     1290.0000    62     1300.0000     1282.0000  2016612    1.38%
  13300 10030     1290.0000    66     1300.0000     1282.0000  2021075    1.38%
  13400 10130     1290.0000    52     1300.0000     1282.0000  2023864    1.38%
  13500 10219     1291.0000    76     1300.0000     1282.0000  2044529    1.38%
  13600 10318     1291.0000    57     1300.0000     1282.0000  2048705    1.38%
  13700 10418     1291.0000    63     1300.0000     1282.0000  2053735    1.38%
  13800 10505     1291.0000    63     1300.0000     1282.0000  2065377    1.38%
  13900 10592     1293.0000    57     1300.0000     1282.0000  2071547    1.38%
  14000 10686     1293.0000    64     1300.0000     1282.0000  2079222    1.38%
Elapsed time = 7195.22 sec. (tree size = 274.22 MB, solutions = 5)
Nodefile size = 147.06 MB (109.98 MB after compression)

Cover cuts applied:  2161
Mixed integer rounding cuts applied:  34
Zero-half cuts applied:  1
Gomory fractional cuts applied:  21

Solution pool: 5 solutions saved.

MIP - Time limit exceeded, integer feasible:  Objective = 1.3000000000e+003
Current MIP best bound = 1.2820000000e+003 (gap = 18, 1.38%)
Solution time = 7200.03 sec.  Iterations = 2080586  Nodes = 14007 (10691)


Incumbent solution
Variable Name           Solution Value
Cmax                       1300.000000
X_1_29                        1.000000
X_2_22                        1.000000
X_3_40                        1.000000
X_4_34                        1.000000
X_5_26                        1.000000
X_6_35                        1.000000
X_7_19                        1.000000
X_8_6                         1.000000
X_9_4                         1.000000
X_10_36                       1.000000
X_11_15                       1.000000
X_12_11                       1.000000
X_13_1                        1.000000
X_14_10                       1.000000
X_15_17                       1.000000
X_16_40                       1.000000
X_17_31                       1.000000
X_18_21                       1.000000
X_19_16                       1.000000
X_20_36                       1.000000
X_21_39                       1.000000
X_22_1                        1.000000
X_23_29                       1.000000
X_24_11                       1.000000
X_25_4                        1.000000
X_26_20                       1.000000
X_27_32                       1.000000
X_28_14                       1.000000
X_29_24                       1.000000
X_30_30                       1.000000
X_31_26                       1.000000
X_32_4                        1.000000
X_33_23                       1.000000
X_34_14                       1.000000
X_35_27                       1.000000
X_36_27                       1.000000
X_37_6                        1.000000
X_38_15                       1.000000
X_39_4                        1.000000
X_40_17                       1.000000
X_41_32                       1.000000
X_42_24                       1.000000
X_43_39                       1.000000
X_44_40                       1.000000
X_45_11                       1.000000
X_46_13                       1.000000
X_47_9                        1.000000
X_48_6                        1.000000
X_49_16                       1.000000
X_50_3                        1.000000
X_51_13                       1.000000
X_52_23                       1.000000
X_53_32                       1.000000
X_54_38                       1.000000
X_55_14                       1.000000
X_56_32                       1.000000
X_57_26                       1.000000
X_58_14                       1.000000
X_59_16                       1.000000
X_60_18                       1.000000
X_61_8                        1.000000
X_62_20                       1.000000
X_63_37                       1.000000
X_64_24                       1.000000
X_65_26                       1.000000
X_66_28                       1.000000
X_67_11                       1.000000
X_68_20                       1.000000
X_69_8                        1.000000
X_70_24                       1.000000
X_71_36                       1.000000
X_72_15                       1.000000
X_73_4                        1.000000
X_74_13                       1.000000
X_75_29                       1.000000
X_76_12                       1.000000
X_77_2                        1.000000
X_78_1                        1.000000
X_79_10                       1.000000
X_80_19                       1.000000
X_81_18                       1.000000
X_82_34                       1.000000
X_83_16                       1.000000
X_84_9                        1.000000
X_85_31                       1.000000
X_86_35                       1.000000
X_87_14                       1.000000
X_88_25                       1.000000
X_89_40                       1.000000
X_90_5                        1.000000
X_91_8                        1.000000
X_92_11                       1.000000
X_93_7                        1.000000
X_94_36                       1.000000
X_95_21                       1.000000
X_96_36                       1.000000
X_97_3                        1.000000
X_98_31                       1.000000
X_99_3                        1.000000
X_100_16                      1.000000
X_101_38                      1.000000
X_102_7                       1.000000
X_103_20                      1.000000
X_104_5                       1.000000
X_105_28                      1.000000
X_106_38                      1.000000
X_107_9                       1.000000
X_108_26                      1.000000
X_109_3                       1.000000
X_110_13                      1.000000
X_111_11                      1.000000
X_112_19                      1.000000
X_113_21                      1.000000
X_114_32                      1.000000
X_115_2                       1.000000
X_116_37                      1.000000
X_117_22                      1.000000
X_118_7                       1.000000
X_119_39                      1.000000
X_120_15                      1.000000
X_121_10                      1.000000
X_122_31                      1.000000
X_123_19                      1.000000
X_124_20                      1.000000
X_125_34                      1.000000
X_126_20                      1.000000
X_127_6                       1.000000
X_128_30                      1.000000
X_129_16                      1.000000
X_130_37                      1.000000
X_131_39                      1.000000
X_132_1                       1.000000
X_133_12                      1.000000
X_134_34                      1.000000
X_135_16                      1.000000
X_136_12                      1.000000
X_137_24                      1.000000
X_138_11                      1.000000
X_139_40                      1.000000
X_140_18                      1.000000
X_141_8                       1.000000
X_142_26                      1.000000
X_143_14                      1.000000
X_144_14                      1.000000
X_145_1                       1.000000
X_146_35                      1.000000
X_147_27                      1.000000
X_148_40                      1.000000
X_149_7                       1.000000
X_150_33                      1.000000
X_151_15                      1.000000
X_152_15                      1.000000
X_153_11                      1.000000
X_154_20                      1.000000
X_155_25                      1.000000
X_156_27                      1.000000
X_157_32                      1.000000
X_158_24                      1.000000
X_159_32                      1.000000
X_160_34                      1.000000
X_161_10                      1.000000
X_162_38                      1.000000
X_163_21                      1.000000
X_164_21                      1.000000
X_165_2                       1.000000
X_166_35                      1.000000
X_167_5                       1.000000
X_168_12                      1.000000
X_169_25                      1.000000
X_170_15                      1.000000
X_171_9                       1.000000
X_172_2                       1.000000
X_173_12                      1.000000
X_174_21                      1.000000
X_175_16                      1.000000
X_176_14                      1.000000
X_177_16                      1.000000
X_178_4                       1.000000
X_179_36                      1.000000
X_180_14                      1.000000
X_181_29                      1.000000
X_182_7                       1.000000
X_183_35                      1.000000
X_184_4                       1.000000
X_185_26                      1.000000
X_186_18                      1.000000
X_187_24                      1.000000
X_188_2                       1.000000
X_189_2                       1.000000
X_190_5                       1.000000
X_191_13                      1.000000
X_192_7                       1.000000
X_193_18                      1.000000
X_194_19                      1.000000
X_195_6                       1.000000
X_196_22                      1.000000
X_197_7                       1.000000
X_198_26                      1.000000
X_199_36                      1.000000
X_200_7                       1.000000
X_201_28                      1.000000
X_202_27                      1.000000
X_203_37                      1.000000
X_204_28                      1.000000
X_205_2                       1.000000
X_206_10                      1.000000
X_207_26                      1.000000
X_208_37                      1.000000
X_209_22                      1.000000
X_210_18                      1.000000
X_211_22                      1.000000
X_212_7                       1.000000
X_213_5                       1.000000
X_214_23                      1.000000
X_215_10                      1.000000
X_216_15                      1.000000
X_217_31                      1.000000
X_218_23                      1.000000
X_219_5                       1.000000
X_220_15                      1.000000
X_221_35                      1.000000
X_222_21                      1.000000
X_223_6                       1.000000
X_224_38                      1.000000
X_225_30                      1.000000
X_226_11                      1.000000
X_227_1                       1.000000
X_228_26                      1.000000
X_229_27                      1.000000
X_230_1                       1.000000
X_231_29                      1.000000
X_232_5                       1.000000
X_233_8                       1.000000
X_234_2                       1.000000
X_235_17                      1.000000
X_236_3                       1.000000
X_237_32                      1.000000
X_238_19                      1.000000
X_239_12                      1.000000
X_240_16                      1.000000
X_241_34                      1.000000
X_242_7                       1.000000
X_243_28                      1.000000
X_244_21                      1.000000
X_245_17                      1.000000
X_246_15                      1.000000
X_247_26                      1.000000
X_248_27                      1.000000
X_249_17                      1.000000
X_250_21                      1.000000
X_251_33                      1.000000
X_252_33                      1.000000
X_253_5                       1.000000
X_254_22                      1.000000
X_255_4                       1.000000
X_256_32                      1.000000
X_257_32                      1.000000
X_258_18                      1.000000
X_259_33                      1.000000
X_260_4                       1.000000
X_261_13                      1.000000
X_262_10                      1.000000
X_263_21                      1.000000
X_264_4                       1.000000
X_265_33                      1.000000
X_266_31                      1.000000
X_267_20                      1.000000
X_268_25                      1.000000
X_269_15                      1.000000
X_270_18                      1.000000
X_271_5                       1.000000
X_272_3                       1.000000
X_273_17                      1.000000
X_274_10                      1.000000
X_275_37                      1.000000
X_276_3                       1.000000
X_277_25                      1.000000
X_278_30                      1.000000
X_279_9                       1.000000
X_280_12                      1.000000
X_281_17                      1.000000
X_282_30                      1.000000
X_283_28                      1.000000
X_284_5                       1.000000
X_285_1                       1.000000
X_286_36                      1.000000
X_287_13                      1.000000
X_288_8                       1.000000
X_289_28                      1.000000
X_290_3                       1.000000
X_291_14                      1.000000
X_292_23                      1.000000
X_293_14                      1.000000
X_294_38                      1.000000
X_295_13                      1.000000
X_296_19                      1.000000
X_297_25                      1.000000
X_298_20                      1.000000
X_299_30                      1.000000
X_300_37                      1.000000
X_301_4                       1.000000
X_302_37                      1.000000
X_303_16                      1.000000
X_304_29                      1.000000
X_305_8                       1.000000
X_306_28                      1.000000
X_307_28                      1.000000
X_308_2                       1.000000
X_309_10                      1.000000
X_310_17                      1.000000
X_311_25                      1.000000
X_312_32                      1.000000
X_313_25                      1.000000
X_314_35                      1.000000
X_315_35                      1.000000
X_316_17                      1.000000
X_317_30                      1.000000
X_318_35                      1.000000
X_319_11                      1.000000
X_320_32                      1.000000
X_321_13                      1.000000
X_322_26                      1.000000
X_323_8                       1.000000
X_324_38                      1.000000
X_325_40                      1.000000
X_326_11                      1.000000
X_327_31                      1.000000
X_328_31                      1.000000
X_329_34                      1.000000
X_330_13                      1.000000
X_331_37                      1.000000
X_332_29                      1.000000
X_333_20                      1.000000
X_334_17                      1.000000
X_335_22                      1.000000
X_336_23                      1.000000
X_337_9                       1.000000
X_338_2                       1.000000
X_339_23                      1.000000
X_340_13                      1.000000
X_341_16                      1.000000
X_342_39                      1.000000
X_343_30                      1.000000
X_344_30                      1.000000
X_345_27                      1.000000
X_346_8                       1.000000
X_347_33                      1.000000
X_348_21                      1.000000
X_349_9                       1.000000
X_350_23                      1.000000
X_351_33                      1.000000
X_352_7                       1.000000
X_353_34                      1.000000
X_354_39                      1.000000
X_355_25                      1.000000
X_356_23                      1.000000
X_357_12                      1.000000
X_358_3                       1.000000
X_359_22                      1.000000
X_360_28                      1.000000
X_361_27                      1.000000
X_362_6                       1.000000
X_363_31                      1.000000
X_364_27                      1.000000
X_365_12                      1.000000
X_366_17                      1.000000
X_367_1                       1.000000
X_368_39                      1.000000
X_369_18                      1.000000
X_370_29                      1.000000
X_371_29                      1.000000
X_372_25                      1.000000
X_373_38                      1.000000
X_374_24                      1.000000
X_375_16                      1.000000
X_376_11                      1.000000
X_377_35                      1.000000
X_378_40                      1.000000
X_379_3                       1.000000
X_380_38                      1.000000
X_381_9                       1.000000
X_382_24                      1.000000
X_383_2                       1.000000
X_384_23                      1.000000
X_385_30                      1.000000
X_386_23                      1.000000
X_387_39                      1.000000
X_388_24                      1.000000
X_389_3                       1.000000
X_390_6                       1.000000
X_391_6                       1.000000
X_392_26                      1.000000
X_393_15                      1.000000
X_394_24                      1.000000
X_395_8                       1.000000
X_396_18                      1.000000
X_397_24                      1.000000
X_398_34                      1.000000
X_399_39                      1.000000
X_400_32                      1.000000
X_401_6                       1.000000
X_402_40                      1.000000
X_403_36                      1.000000
X_404_39                      1.000000
X_405_27                      1.000000
X_406_8                       1.000000
X_407_29                      1.000000
X_408_6                       1.000000
X_409_10                      1.000000
X_410_38                      1.000000
X_411_8                       1.000000
X_412_5                       1.000000
X_413_19                      1.000000
X_414_12                      1.000000
X_415_1                       1.000000
X_416_5                       1.000000
X_417_33                      1.000000
X_418_28                      1.000000
X_419_34                      1.000000
X_420_11                      1.000000
X_421_33                      1.000000
X_422_20                      1.000000
X_423_18                      1.000000
X_424_36                      1.000000
X_425_1                       1.000000
X_426_38                      1.000000
X_427_9                       1.000000
X_428_9                       1.000000
X_429_1                       1.000000
X_430_19                      1.000000
X_431_30                      1.000000
X_432_31                      1.000000
X_433_17                      1.000000
X_434_22                      1.000000
X_435_25                      1.000000
X_436_33                      1.000000
X_437_18                      1.000000
X_438_39                      1.000000
X_439_19                      1.000000
X_440_40                      1.000000
X_441_33                      1.000000
X_442_12                      1.000000
X_443_35                      1.000000
X_444_4                       1.000000
X_445_34                      1.000000
X_446_10                      1.000000
X_447_36                      1.000000
X_448_13                      1.000000
X_449_28                      1.000000
X_450_40                      1.000000
X_451_1                       1.000000
X_452_10                      1.000000
X_453_31                      1.000000
X_454_34                      1.000000
X_455_36                      1.000000
X_456_28                      1.000000
X_457_14                      1.000000
X_458_33                      1.000000
X_459_22                      1.000000
X_460_21                      1.000000
X_461_29                      1.000000
X_462_25                      1.000000
X_463_22                      1.000000
X_464_21                      1.000000
X_465_3                       1.000000
X_466_7                       1.000000
X_467_12                      1.000000
X_468_20                      1.000000
X_469_31                      1.000000
X_470_19                      1.000000
X_471_6                       1.000000
X_472_2                       1.000000
X_473_3                       1.000000
X_474_40                      1.000000
X_475_38                      1.000000
X_476_37                      1.000000
X_477_24                      1.000000
X_478_23                      1.000000
X_479_39                      1.000000
X_480_35                      1.000000
X_481_9                       1.000000
X_482_29                      1.000000
X_483_27                      1.000000
X_484_9                       1.000000
X_485_22                      1.000000
X_486_30                      1.000000
X_487_19                      1.000000
X_488_37                      1.000000
X_489_12                      1.000000
X_490_33                      1.000000
X_491_18                      1.000000
X_492_7                       1.000000
X_493_14                      1.000000
X_494_9                       1.000000
X_495_37                      1.000000
X_496_22                      1.000000
X_497_17                      1.000000
X_498_39                      1.000000
X_499_34                      1.000000
X_500_35                      1.000000
All other variables in the range 1-20001 are 0.
